100 94080

 3 4
770 325
16 509
606 237
358 535
646 16
813 534
839 997
133 584
312 816
967 446
482 993
895 503
544 956
305 230
269 107
414 720
25 389
981 720
316 263
571 563
725 65
668 265
826 338
276 301
930 378
389 175
722 963
444 152
999 476
427 266
57 329
697 973
971 816
566 163
721 438
368 343
941 367
342 465
805 750
852 199
304 500
764 16
374 821
950 296
816 868
112 511
878 788
6 984
930 239
703 581
846 301
944 6
279 220
382 766
852 453
13 433
303 807
556 870
617 386
160 619
154 295
754 118
181 405
526 680
180 997
377 763
804 594
776 566
168 752
214 878
150 12
16 209
91 165
120 878
956 294
253 911
60 519
266 78
409 434
31 577
21 614
731 963
593 869
289 812
543 799
498 683
746 77
474 48
405 767
548 82
961 895
132 721
324 209
858 445
132 971
521 596
30 522
627 29
301 304
